p cnf 10 42
 8 -6 -7 0
 9 -10 -7 0
 5 1 9 0
 -6 -8 -9 0
 7 6 -4 0
 10 5 -2 0
 -3 5 -2 0
 -10 6 -4 0
 -6 5 4 0
 6 2 -3 0
 8 -6 1 0
 -8 -5 2 0
 3 -9 -2 0
 2 9 6 0
 -10 9 -5 0
 -8 -3 4 0
 -1 -2 3 0
 8 7 -1 0
 -9 8 -4 0
 -5 8 -1 0
 -3 1 5 0
 4 -6 -9 0
 -4 -8 5 0
 1 8 7 0
 7 9 5 0
 9 2 5 0
 9 -8 -2 0
 7 -1 -4 0
 5 1 -8 0
 4 -9 -3 0
 3 -4 -7 0
 2 10 -4 0
 -3 4 8 0
 -1 -5 -10 0
 2 -8 5 0
 10 7 -5 0
 8 10 -3 0
 -1 10 2 0
 4 -5 -10 0
 -6 -7 -10 0
 6 -10 -1 0
 -6 2 7 0
c 1 a_1
c 2 a_2
c 3 a_3
c 4 a_4
c 5 a_5
c 6 a_6
c 7 a_7
c 8 a_8
c 9 a_9
c 10 a_10
